SECTION Graph
Nodes 838
Edges 1763
E 1 19 5
E 1 773 1
E 1 776 6
E 2 20 5
E 2 775 1
E 2 777 6
E 3 776 9
E 3 778 1
E 4 11 55
E 4 773 6
E 4 776 1
E 4 778 9
E 5 775 6
E 5 777 1
E 6 7 2
E 6 25 5
E 6 748 1
E 6 752 6
E 7 26 5
E 7 751 1
E 7 754 6
E 8 9 2
E 8 752 9
E 8 757 1
E 9 754 9
E 9 760 1
E 10 16 120
E 10 748 6
E 10 752 1
E 10 757 9
E 11 751 6
E 11 754 1
E 11 760 9
E 12 13 2
E 12 31 5
E 12 662 1
E 12 667 6
E 13 32 5
E 13 664 1
E 13 669 6
E 14 669 9
E 14 678 1
E 15 662 6
E 15 667 1
E 16 664 6
E 16 669 1
E 16 678 9
E 17 18 5
E 17 39 1
E 17 767 1
E 17 770 9
E 18 40 1
E 18 769 1
E 18 771 9
E 19 20 5
E 19 770 6
E 19 772 1
E 20 771 6
E 20 774 1
E 21 28 55
E 21 767 9
E 21 770 1
E 21 772 6
E 22 769 9
E 22 771 1
E 22 774 6
E 23 24 2
E 23 45 1
E 23 734 1
E 23 741 9
E 24 46 1
E 24 738 1
E 24 742 9
E 25 26 2
E 25 741 6
E 25 745 1
E 26 742 6
E 26 747 1
E 27 34 120
E 27 734 9
E 27 741 1
E 27 745 6
E 28 738 9
E 28 742 1
E 28 747 6
E 29 30 2
E 29 51 1
E 29 632 1
E 29 638 2
E 30 52 1
E 30 640 1
E 30 641 2
E 31 32 2
E 31 652 1
E 31 653 1
E 32 655 1
E 32 660 1
E 33 581 44
E 33 635 7
E 33 647 1
E 33 650 5
E 34 642 7
E 34 648 1
E 34 658 5
E 35 565 2
E 35 570 1
E 36 581 5
E 36 650 44
E 37 38 5
E 37 59 5
E 37 761 1
E 37 764 6
E 38 60 5
E 38 763 1
E 38 765 6
E 39 40 5
E 39 764 9
E 39 766 1
E 40 765 9
E 40 768 1
E 41 48 55
E 41 761 6
E 41 764 1
E 41 766 9
E 42 763 6
E 42 765 1
E 42 768 9
E 43 44 2
E 43 65 5
E 43 724 1
E 43 728 6
E 44 66 5
E 44 727 1
E 44 730 6
E 45 46 2
E 45 728 9
E 45 733 1
E 46 730 9
E 46 737 1
E 47 54 120
E 47 724 6
E 47 728 1
E 47 733 9
E 48 727 6
E 48 730 1
E 48 737 9
E 49 50 2
E 49 71 5
E 49 610 1
E 49 612 1
E 50 72 5
E 50 614 1
E 50 615 1
E 51 52 2
E 51 626 2
E 51 629 1
E 52 631 2
E 52 637 1
E 53 549 44
E 53 611 5
E 53 619 1
E 53 625 7
E 54 617 5
E 54 621 1
E 54 633 7
E 55 539 1
E 55 540 1
E 55 549 5
E 55 611 44
E 56 547 7
E 56 560 1
E 56 562 2
E 57 58 5
E 57 79 1
E 57 750 1
E 57 756 9
E 58 80 1
E 58 755 1
E 58 758 9
E 59 60 5
E 59 756 6
E 59 759 1
E 60 758 6
E 60 762 1
E 61 68 55
E 61 750 9
E 61 756 1
E 61 759 6
E 62 755 9
E 62 758 1
E 62 762 6
E 63 64 2
E 63 85 1
E 63 710 1
E 63 717 9
E 64 86 1
E 64 714 1
E 64 718 9
E 65 66 2
E 65 717 6
E 65 721 1
E 66 718 6
E 66 723 1
E 67 74 120
E 67 710 9
E 67 717 1
E 67 721 6
E 68 714 9
E 68 718 1
E 68 723 6
E 69 70 2
E 69 91 1
E 69 579 1
E 69 586 2
E 70 92 1
E 70 588 1
E 70 589 2
E 71 72 2
E 71 600 1
E 71 601 1
E 72 603 1
E 72 608 1
E 73 523 44
E 73 583 7
E 73 595 1
E 73 598 5
E 74 590 7
E 74 596 1
E 74 606 5
E 75 508 2
E 75 512 1
E 75 521 7
E 76 523 5
E 76 530 1
E 76 534 1
E 76 598 44
E 77 78 5
E 77 99 5
E 77 739 1
E 77 744 6
E 78 100 5
E 78 743 1
E 78 746 6
E 79 80 5
E 79 744 9
E 79 749 1
E 80 746 9
E 80 753 1
E 81 88 55
E 81 739 6
E 81 744 1
E 81 749 9
E 82 743 6
E 82 746 1
E 82 753 9
E 83 84 2
E 83 105 5
E 83 700 1
E 83 704 6
E 84 106 5
E 84 703 1
E 84 706 6
E 85 86 2
E 85 704 9
E 85 709 1
E 86 706 9
E 86 713 1
E 87 94 120
E 87 700 6
E 87 704 1
E 87 709 9
E 88 703 6
E 88 706 1
E 88 713 9
E 89 90 2
E 89 111 5
E 89 553 1
E 89 555 1
E 90 112 5
E 90 557 1
E 90 558 1
E 91 92 2
E 91 573 2
E 91 576 1
E 92 578 2
E 92 585 1
E 93 493 44
E 93 554 5
E 93 563 1
E 93 572 7
E 94 559 5
E 94 568 1
E 94 580 7
E 95 483 1
E 95 484 1
E 95 493 5
E 95 554 44
E 96 491 7
E 96 503 1
E 96 505 2
E 97 98 5
E 97 119 1
E 97 726 1
E 97 732 9
E 98 120 1
E 98 731 1
E 98 735 9
E 99 100 5
E 99 732 6
E 99 736 1
E 100 735 6
E 100 740 1
E 101 108 55
E 101 726 9
E 101 732 1
E 101 736 6
E 102 731 9
E 102 735 1
E 102 740 6
E 103 104 2
E 103 125 1
E 103 686 1
E 103 693 9
E 104 126 1
E 104 690 1
E 104 694 9
E 105 106 2
E 105 693 6
E 105 697 1
E 106 694 6
E 106 699 1
E 107 114 120
E 107 686 9
E 107 693 1
E 107 697 6
E 108 690 9
E 108 694 1
E 108 699 6
E 109 110 2
E 109 131 1
E 109 520 1
E 109 526 2
E 110 132 1
E 110 528 1
E 110 529 2
E 111 112 2
E 111 543 1
E 111 544 1
E 112 546 1
E 112 551 1
E 113 467 44
E 113 524 7
E 113 536 1
E 113 541 5
E 114 531 7
E 114 538 1
E 114 548 5
E 115 455 2
E 115 458 1
E 115 465 7
E 116 467 5
E 116 474 1
E 116 478 1
E 116 541 44
E 117 118 5
E 117 139 5
E 117 715 1
E 117 720 6
E 118 140 5
E 118 719 1
E 118 722 6
E 119 120 5
E 119 720 9
E 119 725 1
E 120 722 9
E 120 729 1
E 121 128 55
E 121 715 6
E 121 720 1
E 121 725 9
E 122 719 6
E 122 722 1
E 122 729 9
E 123 124 2
E 123 145 5
E 123 675 1
E 123 680 6
E 124 146 5
E 124 679 1
E 124 682 6
E 125 126 2
E 125 680 9
E 125 685 1
E 126 682 9
E 126 689 1
E 127 134 120
E 127 675 6
E 127 680 1
E 127 685 9
E 128 679 6
E 128 682 1
E 128 689 9
E 129 130 2
E 129 151 5
E 129 497 1
E 129 499 1
E 130 152 5
E 130 500 1
E 130 501 1
E 131 132 2
E 131 515 2
E 131 517 1
E 132 519 2
E 132 525 1
E 133 443 44
E 133 498 5
E 133 506 1
E 133 514 7
E 134 502 5
E 134 511 1
E 134 522 7
E 135 435 1
E 135 436 1
E 135 443 5
E 135 498 44
E 136 441 7
E 136 451 1
E 136 452 2
E 137 138 5
E 137 159 1
E 137 702 1
E 137 708 9
E 138 160 1
E 138 707 1
E 138 711 9
E 139 140 5
E 139 708 6
E 139 712 1
E 140 711 6
E 140 716 1
E 141 148 55
E 141 702 9
E 141 708 1
E 141 712 6
E 142 707 9
E 142 711 1
E 142 716 6
E 143 144 2
E 143 165 1
E 143 654 1
E 143 666 9
E 144 166 1
E 144 661 1
E 144 668 9
E 145 146 2
E 145 666 6
E 145 672 1
E 146 668 6
E 146 674 1
E 147 154 120
E 147 654 9
E 147 666 1
E 147 672 6
E 148 661 9
E 148 668 1
E 148 674 6
E 149 150 2
E 149 171 1
E 149 464 1
E 149 470 2
E 150 172 1
E 150 472 1
E 150 473 2
E 151 152 2
E 151 487 1
E 151 488 1
E 152 490 1
E 152 495 1
E 153 422 44
E 153 468 7
E 153 480 1
E 153 485 5
E 154 475 7
E 154 482 1
E 154 492 5
E 155 411 2
E 155 414 1
E 155 420 7
E 156 422 5
E 156 428 1
E 156 431 1
E 156 485 44
E 157 158 5
E 157 179 5
E 157 691 1
E 157 696 6
E 158 180 5
E 158 695 1
E 158 698 6
E 159 160 5
E 159 696 9
E 159 701 1
E 160 698 9
E 160 705 1
E 161 168 55
E 161 691 6
E 161 696 1
E 161 701 9
E 162 695 6
E 162 698 1
E 162 705 9
E 163 164 2
E 163 185 5
E 163 630 1
E 163 643 6
E 164 186 5
E 164 639 1
E 164 645 6
E 165 166 2
E 165 643 9
E 165 651 1
E 166 645 9
E 166 659 1
E 167 174 120
E 167 630 6
E 167 643 1
E 167 651 9
E 168 639 6
E 168 645 1
E 168 659 9
E 169 170 2
E 169 191 5
E 169 445 1
E 169 447 1
E 170 192 5
E 170 448 1
E 170 449 1
E 171 172 2
E 171 460 2
E 171 461 1
E 172 463 2
E 172 469 1
E 173 399 44
E 173 446 5
E 173 453 1
E 173 459 7
E 174 450 5
E 174 457 1
E 174 466 7
E 175 391 1
E 175 392 1
E 175 399 5
E 175 446 44
E 176 397 7
E 176 407 1
E 176 408 2
E 177 178 5
E 177 199 1
E 177 677 1
E 177 684 9
E 178 200 1
E 178 683 1
E 178 687 9
E 179 180 5
E 179 684 6
E 179 688 1
E 180 687 6
E 180 692 1
E 181 188 55
E 181 677 9
E 181 684 1
E 181 688 6
E 182 683 9
E 182 687 1
E 182 692 6
E 183 184 2
E 183 205 1
E 183 602 1
E 183 618 9
E 184 206 1
E 184 609 1
E 184 620 9
E 185 186 2
E 185 618 6
E 185 624 1
E 186 620 6
E 186 628 1
E 187 194 120
E 187 602 9
E 187 618 1
E 187 624 6
E 188 609 9
E 188 620 1
E 188 628 6
E 189 190 2
E 189 211 1
E 189 419 1
E 189 425 2
E 190 212 1
E 190 426 1
E 190 427 2
E 191 192 2
E 191 438 1
E 191 439 1
E 192 440 1
E 192 444 1
E 193 378 44
E 193 423 7
E 193 432 1
E 193 437 5
E 194 429 7
E 194 434 1
E 194 442 5
E 195 367 2
E 195 370 1
E 195 376 7
E 196 378 5
E 196 384 1
E 196 387 1
E 196 437 44
E 197 198 5
E 197 219 5
E 197 663 1
E 197 671 6
E 198 220 5
E 198 670 1
E 198 673 6
E 199 200 5
E 199 671 9
E 199 676 1
E 200 673 9
E 200 681 1
E 201 208 55
E 201 663 6
E 201 671 1
E 201 676 9
E 202 670 6
E 202 673 1
E 202 681 9
E 203 204 2
E 203 225 5
E 203 577 1
E 203 591 6
E 204 226 5
E 204 587 1
E 204 593 6
E 205 206 2
E 205 591 9
E 205 599 1
E 206 593 9
E 206 607 1
E 207 214 120
E 207 577 6
E 207 591 1
E 207 599 9
E 208 587 6
E 208 593 1
E 208 607 9
E 209 210 2
E 209 231 5
E 209 401 1
E 209 403 1
E 210 232 5
E 210 404 1
E 210 405 1
E 211 212 2
E 211 416 2
E 211 417 1
E 212 418 2
E 212 424 1
E 213 355 44
E 213 402 5
E 213 409 1
E 213 415 7
E 214 406 5
E 214 413 1
E 214 421 7
E 215 347 1
E 215 348 1
E 215 355 5
E 215 402 44
E 216 353 7
E 216 363 1
E 216 364 2
E 217 218 5
E 217 239 1
E 217 636 1
E 217 649 9
E 218 240 1
E 218 646 1
E 218 656 9
E 219 220 5
E 219 649 6
E 219 657 1
E 220 656 6
E 220 665 1
E 221 228 55
E 221 636 9
E 221 649 1
E 221 657 6
E 222 646 9
E 222 656 1
E 222 665 6
E 223 224 2
E 223 245 1
E 223 545 1
E 223 561 9
E 224 246 1
E 224 552 1
E 224 566 9
E 225 226 2
E 225 561 6
E 225 571 1
E 226 566 6
E 226 575 1
E 227 234 120
E 227 545 9
E 227 561 1
E 227 571 6
E 228 552 9
E 228 566 1
E 228 575 6
E 229 230 2
E 229 251 1
E 229 375 1
E 229 381 2
E 230 252 1
E 230 382 1
E 230 383 2
E 231 232 2
E 231 394 1
E 231 395 1
E 232 396 1
E 232 400 1
E 233 334 44
E 233 379 7
E 233 388 1
E 233 393 5
E 234 385 7
E 234 390 1
E 234 398 5
E 235 323 2
E 235 326 1
E 235 332 7
E 236 334 5
E 236 340 1
E 236 343 1
E 236 393 44
E 237 238 5
E 237 259 5
E 237 613 1
E 237 623 6
E 238 260 5
E 238 622 1
E 238 627 6
E 239 240 5
E 239 623 9
E 239 634 1
E 240 627 9
E 240 644 1
E 241 248 55
E 241 613 6
E 241 623 1
E 241 634 9
E 242 622 6
E 242 627 1
E 242 644 9
E 243 244 2
E 243 265 5
E 243 518 1
E 243 533 6
E 244 266 5
E 244 527 1
E 244 535 6
E 245 246 2
E 245 533 9
E 245 542 1
E 246 535 9
E 246 550 1
E 247 254 120
E 247 518 6
E 247 533 1
E 247 542 9
E 248 527 6
E 248 535 1
E 248 550 9
E 249 250 2
E 249 271 5
E 249 357 1
E 249 359 1
E 250 272 5
E 250 360 1
E 250 361 1
E 251 252 2
E 251 372 2
E 251 373 1
E 252 374 2
E 252 380 1
E 253 313 44
E 253 358 5
E 253 365 1
E 253 371 7
E 254 362 5
E 254 369 1
E 254 377 7
E 255 310 1
E 255 311 1
E 255 313 5
E 255 358 44
E 256 312 7
E 256 319 1
E 256 320 2
E 257 258 5
E 257 278 1
E 257 584 1
E 257 597 9
E 258 279 1
E 258 594 1
E 258 604 9
E 259 260 5
E 259 597 6
E 259 605 1
E 260 604 6
E 260 616 1
E 261 268 55
E 261 584 9
E 261 597 1
E 261 605 6
E 262 594 9
E 262 604 1
E 262 616 6
E 263 264 2
E 263 284 1
E 263 489 1
E 263 504 9
E 264 285 1
E 264 496 1
E 264 509 9
E 265 266 2
E 265 504 6
E 265 513 1
E 266 509 6
E 266 516 1
E 267 274 120
E 267 489 9
E 267 504 1
E 267 513 6
E 268 496 9
E 268 509 1
E 268 516 6
E 269 270 2
E 269 290 1
E 269 331 1
E 269 337 2
E 270 291 1
E 270 338 1
E 270 339 2
E 271 272 2
E 271 350 1
E 271 351 1
E 272 352 1
E 272 356 1
E 273 305 44
E 273 335 7
E 273 344 1
E 273 349 5
E 274 341 7
E 274 346 1
E 274 354 5
E 275 301 2
E 275 303 1
E 275 304 7
E 276 305 5
E 276 306 1
E 276 308 1
E 276 349 44
E 277 556 1
E 277 569 6
E 278 279 5
E 278 569 9
E 278 582 1
E 279 574 9
E 279 592 1
E 280 287 55
E 280 556 6
E 280 569 1
E 280 582 9
E 281 574 1
E 281 592 9
E 282 283 2
E 282 462 1
E 282 477 6
E 283 471 1
E 283 479 6
E 284 285 2
E 284 477 9
E 284 486 1
E 285 479 9
E 285 494 1
E 286 293 120
E 286 462 6
E 286 477 1
E 286 486 9
E 287 471 6
E 287 479 1
E 287 494 9
E 288 289 2
E 288 315 1
E 289 316 1
E 289 317 1
E 290 291 2
E 290 328 2
E 290 329 1
E 291 330 2
E 291 336 1
E 292 297 44
E 292 314 5
E 292 321 1
E 292 327 7
E 293 318 5
E 293 325 1
E 293 333 7
E 294 297 5
E 294 314 44
E 295 298 1
E 295 299 2
E 296 452 3
E 297 298 7
E 298 300 2
E 298 327 44
E 299 300 1
E 299 301 1
E 300 302 1
E 300 329 44
E 301 302 1
E 302 303 2
E 302 331 44
E 303 305 7
E 303 335 44
E 304 305 1
E 304 306 5
E 306 307 1
E 307 308 1
E 307 309 5
E 308 310 5
E 308 351 44
E 309 310 1
E 309 311 1
E 310 357 44
E 311 312 5
E 312 313 1
E 313 319 7
E 314 315 1
E 315 317 2
E 315 321 5
E 316 318 1
E 316 462 120
E 317 318 1
E 317 325 5
E 319 322 2
E 319 371 44
E 320 322 1
E 320 323 1
E 321 325 2
E 321 328 7
E 322 324 1
E 322 373 44
E 323 324 1
E 324 326 2
E 324 375 44
E 325 330 7
E 326 334 7
E 326 379 44
E 327 328 1
E 327 329 2
E 328 330 2
E 329 331 1
E 330 333 1
E 331 335 2
E 332 334 1
E 332 340 5
E 333 336 2
E 335 337 1
E 336 338 1
E 336 486 120
E 337 339 2
E 337 344 7
E 338 341 2
E 338 489 120
E 339 341 1
E 339 346 7
E 340 342 1
E 342 343 1
E 342 345 5
E 343 347 5
E 343 395 44
E 344 346 2
E 344 350 5
E 345 347 1
E 345 348 1
E 346 352 5
E 347 401 44
E 348 353 5
E 349 350 1
E 349 351 1
E 350 352 2
E 351 357 5
E 352 354 1
E 353 355 1
E 354 356 1
E 355 363 7
E 356 360 5
E 356 513 120
E 357 358 1
E 358 359 1
E 359 361 2
E 359 365 5
E 360 362 1
E 360 518 120
E 361 362 1
E 361 369 5
E 363 366 2
E 363 415 44
E 364 366 1
E 364 367 1
E 365 369 2
E 365 372 7
E 366 368 1
E 366 417 44
E 367 368 1
E 368 370 2
E 368 419 44
E 369 374 7
E 370 378 7
E 370 423 44
E 371 372 1
E 371 373 2
E 372 374 2
E 373 375 1
E 374 377 1
E 375 379 2
E 376 378 1
E 376 384 5
E 377 380 2
E 379 381 1
E 380 382 1
E 380 542 120
E 381 383 2
E 381 388 7
E 382 385 2
E 382 545 120
E 383 385 1
E 383 390 7
E 384 386 1
E 386 387 1
E 386 389 5
E 387 391 5
E 387 439 44
E 388 390 2
E 388 394 5
E 389 391 1
E 389 392 1
E 390 396 5
E 391 445 44
E 392 397 5
E 393 394 1
E 393 395 1
E 394 396 2
E 395 401 5
E 396 398 1
E 397 399 1
E 398 400 1
E 399 407 7
E 400 404 5
E 400 571 120
E 401 402 1
E 402 403 1
E 403 405 2
E 403 409 5
E 404 406 1
E 404 577 120
E 405 406 1
E 405 413 5
E 407 410 2
E 407 459 44
E 408 410 1
E 408 411 1
E 409 413 2
E 409 416 7
E 410 412 1
E 410 461 44
E 411 412 1
E 412 414 2
E 412 464 44
E 413 418 7
E 414 422 7
E 414 468 44
E 415 416 1
E 415 417 2
E 416 418 2
E 417 419 1
E 418 421 1
E 419 423 2
E 420 422 1
E 420 428 5
E 421 424 2
E 423 425 1
E 424 426 1
E 424 599 120
E 425 427 2
E 425 432 7
E 426 429 2
E 426 602 120
E 427 429 1
E 427 434 7
E 428 430 1
E 430 431 1
E 430 433 5
E 431 435 5
E 431 488 44
E 432 434 2
E 432 438 5
E 433 435 1
E 433 436 1
E 434 440 5
E 435 497 44
E 436 441 5
E 437 438 1
E 437 439 1
E 438 440 2
E 439 445 5
E 440 442 1
E 441 443 1
E 442 444 1
E 443 451 7
E 444 448 5
E 444 624 120
E 445 446 1
E 446 447 1
E 447 449 2
E 447 453 5
E 448 450 1
E 448 630 120
E 449 450 1
E 449 457 5
E 451 454 2
E 451 514 44
E 452 454 1
E 452 455 1
E 453 457 2
E 453 460 7
E 454 456 1
E 454 517 44
E 455 456 1
E 456 458 2
E 456 520 44
E 457 463 7
E 458 467 7
E 458 524 44
E 459 460 1
E 459 461 2
E 460 463 2
E 461 464 1
E 463 466 1
E 464 468 2
E 465 467 1
E 465 474 5
E 466 469 2
E 468 470 1
E 469 472 1
E 469 651 120
E 470 473 2
E 470 480 7
E 471 556 55
E 472 475 2
E 472 654 120
E 473 475 1
E 473 482 7
E 474 476 1
E 476 478 1
E 476 481 5
E 477 479 2
E 478 483 5
E 478 544 44
E 480 482 2
E 480 487 5
E 481 483 1
E 481 484 1
E 482 490 5
E 483 553 44
E 484 491 5
E 485 487 1
E 485 488 1
E 486 489 1
E 487 490 2
E 488 497 5
E 490 492 1
E 491 493 1
E 492 495 1
E 493 503 7
E 494 496 1
E 494 582 55
E 495 500 5
E 495 672 120
E 496 584 55
E 497 498 1
E 498 499 1
E 499 501 2
E 499 506 5
E 500 502 1
E 500 675 120
E 501 502 1
E 501 511 5
E 503 507 2
E 503 572 44
E 504 509 2
E 505 507 1
E 505 508 1
E 506 511 2
E 506 515 7
E 507 510 1
E 507 576 44
E 508 510 1
E 510 512 2
E 510 579 44
E 511 519 7
E 512 523 7
E 512 583 44
E 513 518 5
E 514 515 1
E 514 517 2
E 515 519 2
E 516 527 5
E 516 605 55
E 517 520 1
E 519 522 1
E 520 524 2
E 521 523 1
E 521 530 5
E 522 525 2
E 524 526 1
E 525 528 1
E 525 685 120
E 526 529 2
E 526 536 7
E 527 613 55
E 528 531 2
E 528 686 120
E 529 531 1
E 529 538 7
E 530 532 1
E 532 534 1
E 532 537 5
E 533 535 2
E 534 539 5
E 534 601 44
E 536 538 2
E 536 543 5
E 537 539 1
E 537 540 1
E 538 546 5
E 539 610 44
E 540 547 5
E 541 543 1
E 541 544 1
E 542 545 1
E 543 546 2
E 544 553 5
E 546 548 1
E 547 549 1
E 548 551 1
E 549 560 7
E 550 552 1
E 550 634 55
E 551 557 5
E 551 697 120
E 552 636 55
E 553 554 1
E 554 555 1
E 555 558 2
E 555 563 5
E 557 559 1
E 557 700 120
E 558 559 1
E 558 568 5
E 560 564 2
E 560 625 44
E 561 566 2
E 562 564 1
E 562 565 1
E 563 568 2
E 563 573 7
E 564 567 1
E 564 629 44
E 565 567 1
E 567 570 2
E 567 632 44
E 568 578 7
E 569 574 5
E 570 581 7
E 570 635 44
E 571 577 5
E 572 573 1
E 572 576 2
E 573 578 2
E 575 587 5
E 575 657 55
E 576 579 1
E 578 580 1
E 579 583 2
E 580 585 2
E 582 584 1
E 583 586 1
E 585 588 1
E 585 709 120
E 586 589 2
E 586 595 7
E 587 663 55
E 588 590 2
E 588 710 120
E 589 590 1
E 589 596 7
E 591 593 2
E 592 594 1
E 595 596 2
E 595 600 5
E 596 603 5
E 597 604 5
E 598 600 1
E 598 601 1
E 599 602 1
E 600 603 2
E 601 610 5
E 603 606 1
E 605 613 5
E 606 608 1
E 607 609 1
E 607 676 55
E 608 614 5
E 608 721 120
E 609 677 55
E 610 611 1
E 611 612 1
E 612 615 2
E 612 619 5
E 614 617 1
E 614 724 120
E 615 617 1
E 615 621 5
E 616 622 5
E 618 620 2
E 619 621 2
E 619 626 7
E 621 631 7
E 623 627 5
E 624 630 5
E 625 626 1
E 625 629 2
E 626 631 2
E 628 639 5
E 628 688 55
E 629 632 1
E 631 633 1
E 632 635 2
E 633 637 2
E 634 636 1
E 635 638 1
E 637 640 1
E 637 733 120
E 638 641 2
E 638 647 7
E 639 691 55
E 640 642 2
E 640 734 120
E 641 642 1
E 641 648 7
E 643 645 2
E 644 646 1
E 647 648 2
E 647 652 5
E 648 655 5
E 649 656 5
E 650 652 1
E 650 653 1
E 651 654 1
E 652 655 2
E 653 662 5
E 655 658 1
E 657 663 5
E 658 660 1
E 659 661 1
E 659 701 55
E 660 664 5
E 660 745 120
E 661 702 55
E 664 748 120
E 665 670 5
E 666 668 2
E 667 669 2
E 671 673 5
E 672 675 5
E 674 679 5
E 674 712 55
E 676 677 1
E 678 757 120
E 679 715 55
E 680 682 2
E 681 683 1
E 684 687 5
E 685 686 1
E 688 691 5
E 689 690 1
E 689 725 55
E 690 726 55
E 692 695 5
E 693 694 2
E 696 698 5
E 697 700 5
E 699 703 5
E 699 736 55
E 701 702 1
E 703 739 55
E 704 706 2
E 705 707 1
E 708 711 5
E 709 710 1
E 712 715 5
E 713 714 1
E 713 749 55
E 714 750 55
E 716 719 5
E 717 718 2
E 720 722 5
E 721 724 5
E 723 727 5
E 723 759 55
E 725 726 1
E 727 761 55
E 728 730 2
E 729 731 1
E 732 735 5
E 733 734 1
E 736 739 5
E 737 738 1
E 737 766 55
E 738 767 55
E 740 743 5
E 741 742 2
E 744 746 5
E 745 748 5
E 747 751 5
E 747 772 55
E 749 750 1
E 751 773 55
E 752 754 2
E 753 755 1
E 756 758 5
E 759 761 5
E 760 778 55
E 762 763 5
E 764 765 5
E 766 767 1
E 768 769 1
E 770 771 5
E 772 773 5
E 774 775 5
E 776 777 5
E 1 779 100000
E 2 779 100000
E 3 779 100000
E 4 779 100000
E 5 779 100000
E 6 780 100000
E 7 780 100000
E 8 780 100000
E 9 780 100000
E 10 780 100000
E 11 780 100000
E 12 781 100000
E 13 781 100000
E 14 781 100000
E 15 781 100000
E 16 781 100000
E 17 782 100000
E 18 782 100000
E 19 782 100000
E 20 782 100000
E 21 782 100000
E 22 782 100000
E 23 783 100000
E 24 783 100000
E 25 783 100000
E 26 783 100000
E 27 783 100000
E 28 783 100000
E 29 784 100000
E 30 784 100000
E 31 784 100000
E 32 784 100000
E 33 784 100000
E 34 784 100000
E 35 785 100000
E 36 785 100000
E 37 786 100000
E 38 786 100000
E 39 786 100000
E 40 786 100000
E 41 786 100000
E 42 786 100000
E 43 787 100000
E 44 787 100000
E 45 787 100000
E 46 787 100000
E 47 787 100000
E 48 787 100000
E 49 788 100000
E 50 788 100000
E 51 788 100000
E 52 788 100000
E 53 788 100000
E 54 788 100000
E 55 789 100000
E 56 789 100000
E 57 790 100000
E 58 790 100000
E 59 790 100000
E 60 790 100000
E 61 790 100000
E 62 790 100000
E 63 791 100000
E 64 791 100000
E 65 791 100000
E 66 791 100000
E 67 791 100000
E 68 791 100000
E 69 792 100000
E 70 792 100000
E 71 792 100000
E 72 792 100000
E 73 792 100000
E 74 792 100000
E 75 793 100000
E 76 793 100000
E 77 794 100000
E 78 794 100000
E 79 794 100000
E 80 794 100000
E 81 794 100000
E 82 794 100000
E 83 795 100000
E 84 795 100000
E 85 795 100000
E 86 795 100000
E 87 795 100000
E 88 795 100000
E 89 796 100000
E 90 796 100000
E 91 796 100000
E 92 796 100000
E 93 796 100000
E 94 796 100000
E 95 797 100000
E 96 797 100000
E 97 798 100000
E 98 798 100000
E 99 798 100000
E 100 798 100000
E 101 798 100000
E 102 798 100000
E 103 799 100000
E 104 799 100000
E 105 799 100000
E 106 799 100000
E 107 799 100000
E 108 799 100000
E 109 800 100000
E 110 800 100000
E 111 800 100000
E 112 800 100000
E 113 800 100000
E 114 800 100000
E 115 801 100000
E 116 801 100000
E 117 802 100000
E 118 802 100000
E 119 802 100000
E 120 802 100000
E 121 802 100000
E 122 802 100000
E 123 803 100000
E 124 803 100000
E 125 803 100000
E 126 803 100000
E 127 803 100000
E 128 803 100000
E 129 804 100000
E 130 804 100000
E 131 804 100000
E 132 804 100000
E 133 804 100000
E 134 804 100000
E 135 805 100000
E 136 805 100000
E 137 806 100000
E 138 806 100000
E 139 806 100000
E 140 806 100000
E 141 806 100000
E 142 806 100000
E 143 807 100000
E 144 807 100000
E 145 807 100000
E 146 807 100000
E 147 807 100000
E 148 807 100000
E 149 808 100000
E 150 808 100000
E 151 808 100000
E 152 808 100000
E 153 808 100000
E 154 808 100000
E 155 809 100000
E 156 809 100000
E 157 810 100000
E 158 810 100000
E 159 810 100000
E 160 810 100000
E 161 810 100000
E 162 810 100000
E 163 811 100000
E 164 811 100000
E 165 811 100000
E 166 811 100000
E 167 811 100000
E 168 811 100000
E 169 812 100000
E 170 812 100000
E 171 812 100000
E 172 812 100000
E 173 812 100000
E 174 812 100000
E 175 813 100000
E 176 813 100000
E 177 814 100000
E 178 814 100000
E 179 814 100000
E 180 814 100000
E 181 814 100000
E 182 814 100000
E 183 815 100000
E 184 815 100000
E 185 815 100000
E 186 815 100000
E 187 815 100000
E 188 815 100000
E 189 816 100000
E 190 816 100000
E 191 816 100000
E 192 816 100000
E 193 816 100000
E 194 816 100000
E 195 817 100000
E 196 817 100000
E 197 818 100000
E 198 818 100000
E 199 818 100000
E 200 818 100000
E 201 818 100000
E 202 818 100000
E 203 819 100000
E 204 819 100000
E 205 819 100000
E 206 819 100000
E 207 819 100000
E 208 819 100000
E 209 820 100000
E 210 820 100000
E 211 820 100000
E 212 820 100000
E 213 820 100000
E 214 820 100000
E 215 821 100000
E 216 821 100000
E 217 822 100000
E 218 822 100000
E 219 822 100000
E 220 822 100000
E 221 822 100000
E 222 822 100000
E 223 823 100000
E 224 823 100000
E 225 823 100000
E 226 823 100000
E 227 823 100000
E 228 823 100000
E 229 824 100000
E 230 824 100000
E 231 824 100000
E 232 824 100000
E 233 824 100000
E 234 824 100000
E 235 825 100000
E 236 825 100000
E 237 826 100000
E 238 826 100000
E 239 826 100000
E 240 826 100000
E 241 826 100000
E 242 826 100000
E 243 827 100000
E 244 827 100000
E 245 827 100000
E 246 827 100000
E 247 827 100000
E 248 827 100000
E 249 828 100000
E 250 828 100000
E 251 828 100000
E 252 828 100000
E 253 828 100000
E 254 828 100000
E 255 829 100000
E 256 829 100000
E 257 830 100000
E 258 830 100000
E 259 830 100000
E 260 830 100000
E 261 830 100000
E 262 830 100000
E 263 831 100000
E 264 831 100000
E 265 831 100000
E 266 831 100000
E 267 831 100000
E 268 831 100000
E 269 832 100000
E 270 832 100000
E 271 832 100000
E 272 832 100000
E 273 832 100000
E 274 832 100000
E 275 833 100000
E 276 833 100000
E 277 834 100000
E 278 834 100000
E 279 834 100000
E 280 834 100000
E 281 834 100000
E 282 835 100000
E 283 835 100000
E 284 835 100000
E 285 835 100000
E 286 835 100000
E 287 835 100000
E 288 836 100000
E 289 836 100000
E 290 836 100000
E 291 836 100000
E 292 836 100000
E 293 836 100000
E 294 837 100000
E 295 837 100000
E 296 838 100000
END

SECTION Terminals
Terminals 60
T 779
T 780
T 781
T 782
T 783
T 784
T 785
T 786
T 787
T 788
T 789
T 790
T 791
T 792
T 793
T 794
T 795
T 796
T 797
T 798
T 799
T 800
T 801
T 802
T 803
T 804
T 805
T 806
T 807
T 808
T 809
T 810
T 811
T 812
T 813
T 814
T 815
T 816
T 817
T 818
T 819
T 820
T 821
T 822
T 823
T 824
T 825
T 826
T 827
T 828
T 829
T 830
T 831
T 832
T 833
T 834
T 835
T 836
T 837
T 838
END

EOF
